(set-info :smt-lib-version 2.6)
(set-info :category "crafted")
(set-logic QF_FFA)
(define-sort FF0 () (_ FiniteField 52435875175126190479447740508185965837690552500527637822603658699938581184513))
(declare-fun x3 () Bool)
(declare-fun x2 () Bool)
(declare-fun x1 () Bool)
(declare-fun x0 () Bool)
(declare-fun return_n4 () FF0)
(declare-fun x3_n1 () FF0)
(declare-fun mul_n6 () FF0)
(declare-fun mul_n5 () FF0)
(declare-fun x1_n0 () FF0)
(declare-fun x0_n2 () FF0)
(declare-fun x2_n3 () FF0)
(assert 
  (let ((let0 x3))
  (let ((let1 x2))
  (let ((let2 x1))
  (let ((let3 x0))
  (let ((let4 (or let3 let2 let1 let0)))
  (let ((let5 return_n4))
  (let ((let6 (as ff1 FF0)))
  (let ((let7 (= let6 let5)))
  (let ((let8 (= let7 let4)))
  (let ((let9 (as ff0 FF0)))
  (let ((let10 (= let9 let5)))
  (let ((let11 (or let7 let10)))
  (let ((let12 (and let11 let8)))
  (let ((let13 (as ff52435875175126190479447740508185965837690552500527637822603658699938581184512 FF0)))
  (let ((let14 (ff.mul let5 let13)))
  (let ((let15 (ff.add let14 let6)))
  (let ((let16 x3_n1))
  (let ((let17 (ff.mul let16 let13)))
  (let ((let18 (ff.add let17 let6)))
  (let ((let19 mul_n6))
  (let ((let20 (ff.mul let19 let18)))
  (let ((let21 (= let20 let15)))
  (let ((let22 mul_n5))
  (let ((let23 x1_n0))
  (let ((let24 (ff.mul let23 let13)))
  (let ((let25 (ff.add let24 let6)))
  (let ((let26 x0_n2))
  (let ((let27 (ff.mul let26 let13)))
  (let ((let28 (ff.add let27 let6)))
  (let ((let29 (ff.mul let28 let25)))
  (let ((let30 (= let29 let22)))
  (let ((let31 (and let30 let21)))
  (let ((let32 (ite let1 let6 let9)))
  (let ((let33 x2_n3))
  (let ((let34 (= let33 let32)))
  (let ((let35 (ite let3 let6 let9)))
  (let ((let36 (= let26 let35)))
  (let ((let37 (ite let2 let6 let9)))
  (let ((let38 (= let23 let37)))
  (let ((let39 (ite let0 let6 let9)))
  (let ((let40 (= let16 let39)))
  (let ((let41 (and let40 let38 let36 let34)))
  (let ((let42 (and let41 let31)))
  (let ((let43 (=> let42 let12)))
  (let ((let44 (not let43)))
  let44
)))))))))))))))))))))))))))))))))))))))))))))
)
(check-sat)
